Route #1: 1 1 38 23 9 10 8 3 13 1 
Route #2: 1 35 14 2 28 26 19 24 44 1 
Route #3: 1 31 42 43 18 11 27 37 1 
Route #4: 1 29 34 17 5 41 20 32 12 1 
Route #5: 1 6 7 22 16 39 15 1 
Route #6: 1 30 40 21 33 4 36 1 
Route #7: 1 25 1 

Cost 1746.52
Time 0.3714


 * Another infos *

 Iterations: 45 Time: 0.3714 sec - 0.0062 min - 0.0001 horas
0.0000 h 0.0062 min
Problem dimension: 45
